pair_coeff 1 1 0.066 3.5 
pair_coeff 2 2 0.066 3.5 
pair_coeff 3 3 0.066 3.5 
pair_coeff 4 4 0.066 3.5 
pair_coeff 5 5 0.03 2.5 
pair_coeff 6 6 0.03 2.5 
bond_coeff 1 harmonic 268.0 1.529 
bond_coeff 2 harmonic 268.0 1.529 
bond_coeff 3 harmonic 268.0 1.529 
bond_coeff 4 harmonic 268.0 1.529 
bond_coeff 5 harmonic 268.0 1.529 
bond_coeff 6 harmonic 268.0 1.529 
bond_coeff 7 harmonic 268.0 1.529 
bond_coeff 8 harmonic 268.0 1.529 
bond_coeff 9 harmonic 268.0 1.529 
bond_coeff 10 harmonic 268.0 1.529 
bond_coeff 11 harmonic 268.0 1.529 
bond_coeff 12 harmonic 268.0 1.529 
bond_coeff 13 harmonic 268.0 1.529 
bond_coeff 14 harmonic 268.0 1.529 
bond_coeff 15 harmonic 268.0 1.529 
bond_coeff 16 harmonic 268.0 1.529 
bond_coeff 17 harmonic 340.0 1.09 
bond_coeff 18 harmonic 340.0 1.09 
bond_coeff 19 harmonic 340.0 1.09 
bond_coeff 20 harmonic 340.0 1.09 
angle_coeff 1 harmonic 58.35 112.7 
angle_coeff 2 harmonic 58.35 112.7 
angle_coeff 3 harmonic 58.35 112.7 
angle_coeff 4 harmonic 58.35 112.7 
angle_coeff 5 harmonic 58.35 112.7 
angle_coeff 6 harmonic 58.35 112.7 
angle_coeff 7 harmonic 58.35 112.7 
angle_coeff 8 harmonic 58.35 112.7 
angle_coeff 9 harmonic 58.35 112.7 
angle_coeff 10 harmonic 58.35 112.7 
angle_coeff 11 harmonic 58.35 112.7 
angle_coeff 12 harmonic 58.35 112.7 
angle_coeff 13 harmonic 58.35 112.7 
angle_coeff 14 harmonic 58.35 112.7 
angle_coeff 15 harmonic 58.35 112.7 
angle_coeff 16 harmonic 58.35 112.7 
angle_coeff 17 harmonic 58.35 112.7 
angle_coeff 18 harmonic 58.35 112.7 
angle_coeff 19 harmonic 58.35 112.7 
angle_coeff 20 harmonic 58.35 112.7 
angle_coeff 21 harmonic 58.35 112.7 
angle_coeff 22 harmonic 58.35 112.7 
angle_coeff 23 harmonic 58.35 112.7 
angle_coeff 24 harmonic 58.35 112.7 
angle_coeff 25 harmonic 58.35 112.7 
angle_coeff 26 harmonic 58.35 112.7 
angle_coeff 27 harmonic 58.35 112.7 
angle_coeff 28 harmonic 58.35 112.7 
angle_coeff 29 harmonic 58.35 112.7 
angle_coeff 30 harmonic 58.35 112.7 
angle_coeff 31 harmonic 58.35 112.7 
angle_coeff 32 harmonic 58.35 112.7 
angle_coeff 33 harmonic 58.35 112.7 
angle_coeff 34 harmonic 58.35 112.7 
angle_coeff 35 harmonic 58.35 112.7 
angle_coeff 36 harmonic 58.35 112.7 
angle_coeff 37 harmonic 58.35 112.7 
angle_coeff 38 harmonic 58.35 112.7 
angle_coeff 39 harmonic 58.35 112.7 
angle_coeff 40 harmonic 58.35 112.7 
angle_coeff 41 harmonic 58.35 112.7 
angle_coeff 42 harmonic 58.35 112.7 
angle_coeff 43 harmonic 58.35 112.7 
angle_coeff 44 harmonic 58.35 112.7 
angle_coeff 45 harmonic 58.35 112.7 
angle_coeff 46 harmonic 58.35 112.7 
angle_coeff 47 harmonic 58.35 112.7 
angle_coeff 48 harmonic 58.35 112.7 
angle_coeff 49 harmonic 58.35 112.7 
angle_coeff 50 harmonic 58.35 112.7 
angle_coeff 51 harmonic 58.35 112.7 
angle_coeff 52 harmonic 58.35 112.7 
angle_coeff 53 harmonic 58.35 112.7 
angle_coeff 54 harmonic 58.35 112.7 
angle_coeff 55 harmonic 58.35 112.7 
angle_coeff 56 harmonic 58.35 112.7 
angle_coeff 57 harmonic 58.35 112.7 
angle_coeff 58 harmonic 58.35 112.7 
angle_coeff 59 harmonic 58.35 112.7 
angle_coeff 60 harmonic 58.35 112.7 
angle_coeff 61 harmonic 58.35 112.7 
angle_coeff 62 harmonic 58.35 112.7 
angle_coeff 63 harmonic 58.35 112.7 
angle_coeff 64 harmonic 58.35 112.7 
angle_coeff 65 harmonic 33.0 107.8 
angle_coeff 66 harmonic 33.0 107.8 
angle_coeff 67 harmonic 33.0 107.8 
angle_coeff 68 harmonic 33.0 107.8 
angle_coeff 69 harmonic 37.5 110.7 
angle_coeff 70 harmonic 37.5 110.7 
angle_coeff 71 harmonic 37.5 110.7 
angle_coeff 72 harmonic 37.5 110.7 
angle_coeff 73 harmonic 37.5 110.7 
angle_coeff 74 harmonic 37.5 110.7 
angle_coeff 75 harmonic 37.5 110.7 
angle_coeff 76 harmonic 37.5 110.7 
angle_coeff 77 harmonic 37.5 110.7 
angle_coeff 78 harmonic 37.5 110.7 
angle_coeff 79 harmonic 37.5 110.7 
angle_coeff 80 harmonic 37.5 110.7 
angle_coeff 81 harmonic 37.5 110.7 
angle_coeff 82 harmonic 37.5 110.7 
angle_coeff 83 harmonic 37.5 110.7 
angle_coeff 84 harmonic 37.5 110.7 
dihedral_coeff 1 opls 1.711 -0.5 0.663 0.0 
dihedral_coeff 2 opls 1.711 -0.5 0.663 0.0 
dihedral_coeff 3 opls 1.711 -0.5 0.663 0.0 
dihedral_coeff 4 opls 1.711 -0.5 0.663 0.0 
dihedral_coeff 5 opls 1.711 -0.5 0.663 0.0 
dihedral_coeff 6 opls 1.711 -0.5 0.663 0.0 
dihedral_coeff 7 opls 1.711 -0.5 0.663 0.0 
dihedral_coeff 8 opls 1.711 -0.5 0.663 0.0 
dihedral_coeff 9 opls 1.711 -0.5 0.663 0.0 
dihedral_coeff 10 opls 1.711 -0.5 0.663 0.0 
dihedral_coeff 11 opls 1.711 -0.5 0.663 0.0 
dihedral_coeff 12 opls 1.711 -0.5 0.663 0.0 
dihedral_coeff 13 opls 1.711 -0.5 0.663 0.0 
dihedral_coeff 14 opls 1.711 -0.5 0.663 0.0 
dihedral_coeff 15 opls 1.711 -0.5 0.663 0.0 
dihedral_coeff 16 opls 1.711 -0.5 0.663 0.0 
dihedral_coeff 17 opls 1.711 -0.5 0.663 0.0 
dihedral_coeff 18 opls 1.711 -0.5 0.663 0.0 
dihedral_coeff 19 opls 1.711 -0.5 0.663 0.0 
dihedral_coeff 20 opls 1.711 -0.5 0.663 0.0 
dihedral_coeff 21 opls 1.711 -0.5 0.663 0.0 
dihedral_coeff 22 opls 1.711 -0.5 0.663 0.0 
dihedral_coeff 23 opls 1.711 -0.5 0.663 0.0 
dihedral_coeff 24 opls 1.711 -0.5 0.663 0.0 
dihedral_coeff 25 opls 1.711 -0.5 0.663 0.0 
dihedral_coeff 26 opls 1.711 -0.5 0.663 0.0 
dihedral_coeff 27 opls 1.711 -0.5 0.663 0.0 
dihedral_coeff 28 opls 1.711 -0.5 0.663 0.0 
dihedral_coeff 29 opls 1.711 -0.5 0.663 0.0 
dihedral_coeff 30 opls 1.711 -0.5 0.663 0.0 
dihedral_coeff 31 opls 1.711 -0.5 0.663 0.0 
dihedral_coeff 32 opls 1.711 -0.5 0.663 0.0 
dihedral_coeff 33 opls 1.711 -0.5 0.663 0.0 
dihedral_coeff 34 opls 1.711 -0.5 0.663 0.0 
dihedral_coeff 35 opls 1.711 -0.5 0.663 0.0 
dihedral_coeff 36 opls 1.711 -0.5 0.663 0.0 
dihedral_coeff 37 opls 1.711 -0.5 0.663 0.0 
dihedral_coeff 38 opls 1.711 -0.5 0.663 0.0 
dihedral_coeff 39 opls 1.711 -0.5 0.663 0.0 
dihedral_coeff 40 opls 1.711 -0.5 0.663 0.0 
dihedral_coeff 41 opls 1.711 -0.5 0.663 0.0 
dihedral_coeff 42 opls 1.711 -0.5 0.663 0.0 
dihedral_coeff 43 opls 1.711 -0.5 0.663 0.0 
dihedral_coeff 44 opls 1.711 -0.5 0.663 0.0 
dihedral_coeff 45 opls 1.711 -0.5 0.663 0.0 
dihedral_coeff 46 opls 1.711 -0.5 0.663 0.0 
dihedral_coeff 47 opls 1.711 -0.5 0.663 0.0 
dihedral_coeff 48 opls 1.711 -0.5 0.663 0.0 
dihedral_coeff 49 opls 1.711 -0.5 0.663 0.0 
dihedral_coeff 50 opls 1.711 -0.5 0.663 0.0 
dihedral_coeff 51 opls 1.711 -0.5 0.663 0.0 
dihedral_coeff 52 opls 1.711 -0.5 0.663 0.0 
dihedral_coeff 53 opls 1.711 -0.5 0.663 0.0 
dihedral_coeff 54 opls 1.711 -0.5 0.663 0.0 
dihedral_coeff 55 opls 1.711 -0.5 0.663 0.0 
dihedral_coeff 56 opls 1.711 -0.5 0.663 0.0 
dihedral_coeff 57 opls 1.711 -0.5 0.663 0.0 
dihedral_coeff 58 opls 1.711 -0.5 0.663 0.0 
dihedral_coeff 59 opls 1.711 -0.5 0.663 0.0 
dihedral_coeff 60 opls 1.711 -0.5 0.663 0.0 
dihedral_coeff 61 opls 1.711 -0.5 0.663 0.0 
dihedral_coeff 62 opls 1.711 -0.5 0.663 0.0 
dihedral_coeff 63 opls 1.711 -0.5 0.663 0.0 
dihedral_coeff 64 opls 1.711 -0.5 0.663 0.0 
dihedral_coeff 65 opls -0.305938 2.69739 -0.896807 0.74567 
dihedral_coeff 66 opls -0.305938 2.69739 -0.896807 0.74567 
dihedral_coeff 67 opls -0.305938 2.69739 -0.896807 0.74567 
dihedral_coeff 68 opls 1.3 -0.05 0.2 0.0 
dihedral_coeff 69 opls -0.305938 2.69739 -0.896807 0.74567 
dihedral_coeff 70 opls -0.305938 2.69739 -0.896807 0.74567 
dihedral_coeff 71 opls -0.305938 2.69739 -0.896807 0.74567 
dihedral_coeff 72 opls 1.3 -0.05 0.2 0.0 
dihedral_coeff 73 opls -0.305938 2.69739 -0.896807 0.74567 
dihedral_coeff 74 opls -0.305938 2.69739 -0.896807 0.74567 
dihedral_coeff 75 opls -0.305938 2.69739 -0.896807 0.74567 
dihedral_coeff 76 opls 1.3 -0.05 0.2 0.0 
dihedral_coeff 77 opls 1.3 -0.05 0.2 0.0 
dihedral_coeff 78 opls 1.3 -0.05 0.2 0.0 
dihedral_coeff 79 opls 1.3 -0.05 0.2 0.0 
dihedral_coeff 80 opls 1.3 -0.05 0.2 0.0 
dihedral_coeff 81 opls -0.305938 2.69739 -0.896807 0.74567 
dihedral_coeff 82 opls -0.305938 2.69739 -0.896807 0.74567 
dihedral_coeff 83 opls -0.305938 2.69739 -0.896807 0.74567 
dihedral_coeff 84 opls 1.3 -0.05 0.2 0.0 
dihedral_coeff 85 opls -0.305938 2.69739 -0.896807 0.74567 
dihedral_coeff 86 opls -0.305938 2.69739 -0.896807 0.74567 
dihedral_coeff 87 opls -0.305938 2.69739 -0.896807 0.74567 
dihedral_coeff 88 opls 1.3 -0.05 0.2 0.0 
dihedral_coeff 89 opls -0.305938 2.69739 -0.896807 0.74567 
dihedral_coeff 90 opls -0.305938 2.69739 -0.896807 0.74567 
dihedral_coeff 91 opls -0.305938 2.69739 -0.896807 0.74567 
dihedral_coeff 92 opls 1.3 -0.05 0.2 0.0 
dihedral_coeff 93 opls 1.3 -0.05 0.2 0.0 
dihedral_coeff 94 opls 1.3 -0.05 0.2 0.0 
dihedral_coeff 95 opls 1.3 -0.05 0.2 0.0 
dihedral_coeff 96 opls 1.3 -0.05 0.2 0.0 
dihedral_coeff 97 opls -0.305938 2.69739 -0.896807 0.74567 
dihedral_coeff 98 opls -0.305938 2.69739 -0.896807 0.74567 
dihedral_coeff 99 opls -0.305938 2.69739 -0.896807 0.74567 
dihedral_coeff 100 opls 1.3 -0.05 0.2 0.0 
dihedral_coeff 101 opls -0.305938 2.69739 -0.896807 0.74567 
dihedral_coeff 102 opls -0.305938 2.69739 -0.896807 0.74567 
dihedral_coeff 103 opls -0.305938 2.69739 -0.896807 0.74567 
dihedral_coeff 104 opls 1.3 -0.05 0.2 0.0 
dihedral_coeff 105 opls -0.305938 2.69739 -0.896807 0.74567 
dihedral_coeff 106 opls -0.305938 2.69739 -0.896807 0.74567 
dihedral_coeff 107 opls -0.305938 2.69739 -0.896807 0.74567 
dihedral_coeff 108 opls 1.3 -0.05 0.2 0.0 
dihedral_coeff 109 opls 1.3 -0.05 0.2 0.0 
dihedral_coeff 110 opls 1.3 -0.05 0.2 0.0 
dihedral_coeff 111 opls 1.3 -0.05 0.2 0.0 
dihedral_coeff 112 opls 1.3 -0.05 0.2 0.0 
dihedral_coeff 113 opls 1.3 -0.05 0.2 0.0 
dihedral_coeff 114 opls 1.3 -0.05 0.2 0.0 
dihedral_coeff 115 opls 1.3 -0.05 0.2 0.0 
dihedral_coeff 116 opls 1.3 -0.05 0.2 0.0 
dihedral_coeff 117 opls 1.3 -0.05 0.2 0.0 
dihedral_coeff 118 opls 1.3 -0.05 0.2 0.0 
dihedral_coeff 119 opls 1.3 -0.05 0.2 0.0 
dihedral_coeff 120 opls 1.3 -0.05 0.2 0.0 
dihedral_coeff 121 opls 1.3 -0.05 0.2 0.0 
dihedral_coeff 122 opls 1.3 -0.05 0.2 0.0 
dihedral_coeff 123 opls 1.3 -0.05 0.2 0.0 
dihedral_coeff 124 opls 1.3 -0.05 0.2 0.0 
dihedral_coeff 125 opls 1.3 -0.05 0.2 0.0 
dihedral_coeff 126 opls 1.3 -0.05 0.2 0.0 
dihedral_coeff 127 opls 1.3 -0.05 0.2 0.0 
dihedral_coeff 128 opls 1.3 -0.05 0.2 0.0 
dihedral_coeff 129 opls -0.305938 2.69739 -0.896807 0.74567 
dihedral_coeff 130 opls -0.305938 2.69739 -0.896807 0.74567 
dihedral_coeff 131 opls -0.305938 2.69739 -0.896807 0.74567 
dihedral_coeff 132 opls 1.3 -0.05 0.2 0.0 
dihedral_coeff 133 opls -0.305938 2.69739 -0.896807 0.74567 
dihedral_coeff 134 opls -0.305938 2.69739 -0.896807 0.74567 
dihedral_coeff 135 opls -0.305938 2.69739 -0.896807 0.74567 
dihedral_coeff 136 opls 1.3 -0.05 0.2 0.0 
dihedral_coeff 137 opls -0.305938 2.69739 -0.896807 0.74567 
dihedral_coeff 138 opls -0.305938 2.69739 -0.896807 0.74567 
dihedral_coeff 139 opls -0.305938 2.69739 -0.896807 0.74567 
dihedral_coeff 140 opls 1.3 -0.05 0.2 0.0 
dihedral_coeff 141 opls 1.3 -0.05 0.2 0.0 
dihedral_coeff 142 opls 1.3 -0.05 0.2 0.0 
dihedral_coeff 143 opls 1.3 -0.05 0.2 0.0 
dihedral_coeff 144 opls 1.3 -0.05 0.2 0.0 
dihedral_coeff 145 opls -0.305938 2.69739 -0.896807 0.74567 
dihedral_coeff 146 opls -0.305938 2.69739 -0.896807 0.74567 
dihedral_coeff 147 opls -0.305938 2.69739 -0.896807 0.74567 
dihedral_coeff 148 opls 1.3 -0.05 0.2 0.0 
dihedral_coeff 149 opls -0.305938 2.69739 -0.896807 0.74567 
dihedral_coeff 150 opls -0.305938 2.69739 -0.896807 0.74567 
dihedral_coeff 151 opls -0.305938 2.69739 -0.896807 0.74567 
dihedral_coeff 152 opls 1.3 -0.05 0.2 0.0 
dihedral_coeff 153 opls -0.305938 2.69739 -0.896807 0.74567 
dihedral_coeff 154 opls -0.305938 2.69739 -0.896807 0.74567 
dihedral_coeff 155 opls -0.305938 2.69739 -0.896807 0.74567 
dihedral_coeff 156 opls 1.3 -0.05 0.2 0.0 
dihedral_coeff 157 opls 1.3 -0.05 0.2 0.0 
dihedral_coeff 158 opls 1.3 -0.05 0.2 0.0 
dihedral_coeff 159 opls 1.3 -0.05 0.2 0.0 
dihedral_coeff 160 opls 1.3 -0.05 0.2 0.0 
dihedral_coeff 161 opls -0.305938 2.69739 -0.896807 0.74567 
dihedral_coeff 162 opls -0.305938 2.69739 -0.896807 0.74567 
dihedral_coeff 163 opls -0.305938 2.69739 -0.896807 0.74567 
dihedral_coeff 164 opls 1.3 -0.05 0.2 0.0 
dihedral_coeff 165 opls -0.305938 2.69739 -0.896807 0.74567 
dihedral_coeff 166 opls -0.305938 2.69739 -0.896807 0.74567 
dihedral_coeff 167 opls -0.305938 2.69739 -0.896807 0.74567 
dihedral_coeff 168 opls 1.3 -0.05 0.2 0.0 
dihedral_coeff 169 opls -0.305938 2.69739 -0.896807 0.74567 
dihedral_coeff 170 opls -0.305938 2.69739 -0.896807 0.74567 
dihedral_coeff 171 opls -0.305938 2.69739 -0.896807 0.74567 
dihedral_coeff 172 opls 1.3 -0.05 0.2 0.0 
dihedral_coeff 173 opls 1.3 -0.05 0.2 0.0 
dihedral_coeff 174 opls 1.3 -0.05 0.2 0.0 
dihedral_coeff 175 opls 1.3 -0.05 0.2 0.0 
dihedral_coeff 176 opls 1.3 -0.05 0.2 0.0 
dihedral_coeff 177 opls 1.3 -0.05 0.2 0.0 
dihedral_coeff 178 opls 1.3 -0.05 0.2 0.0 
dihedral_coeff 179 opls 1.3 -0.05 0.2 0.0 
dihedral_coeff 180 opls 1.3 -0.05 0.2 0.0 
dihedral_coeff 181 opls 1.3 -0.05 0.2 0.0 
dihedral_coeff 182 opls 1.3 -0.05 0.2 0.0 
dihedral_coeff 183 opls 1.3 -0.05 0.2 0.0 
dihedral_coeff 184 opls 1.3 -0.05 0.2 0.0 
dihedral_coeff 185 opls 1.3 -0.05 0.2 0.0 
dihedral_coeff 186 opls 1.3 -0.05 0.2 0.0 
dihedral_coeff 187 opls 1.3 -0.05 0.2 0.0 
dihedral_coeff 188 opls 1.3 -0.05 0.2 0.0 
dihedral_coeff 189 opls 1.3 -0.05 0.2 0.0 
dihedral_coeff 190 opls 1.3 -0.05 0.2 0.0 
dihedral_coeff 191 opls 1.3 -0.05 0.2 0.0 
dihedral_coeff 192 opls 1.3 -0.05 0.2 0.0 
dihedral_coeff 193 opls -0.305938 2.69739 -0.896807 0.74567 
dihedral_coeff 194 opls -0.305938 2.69739 -0.896807 0.74567 
dihedral_coeff 195 opls -0.305938 2.69739 -0.896807 0.74567 
dihedral_coeff 196 opls 1.3 -0.05 0.2 0.0 
dihedral_coeff 197 opls -0.305938 2.69739 -0.896807 0.74567 
dihedral_coeff 198 opls -0.305938 2.69739 -0.896807 0.74567 
dihedral_coeff 199 opls -0.305938 2.69739 -0.896807 0.74567 
dihedral_coeff 200 opls 1.3 -0.05 0.2 0.0 
dihedral_coeff 201 opls -0.305938 2.69739 -0.896807 0.74567 
dihedral_coeff 202 opls -0.305938 2.69739 -0.896807 0.74567 
dihedral_coeff 203 opls -0.305938 2.69739 -0.896807 0.74567 
dihedral_coeff 204 opls 1.3 -0.05 0.2 0.0 
dihedral_coeff 205 opls 1.3 -0.05 0.2 0.0 
dihedral_coeff 206 opls 1.3 -0.05 0.2 0.0 
dihedral_coeff 207 opls 1.3 -0.05 0.2 0.0 
dihedral_coeff 208 opls 1.3 -0.05 0.2 0.0 
dihedral_coeff 209 opls -0.305938 2.69739 -0.896807 0.74567 
dihedral_coeff 210 opls -0.305938 2.69739 -0.896807 0.74567 
dihedral_coeff 211 opls -0.305938 2.69739 -0.896807 0.74567 
dihedral_coeff 212 opls 1.3 -0.05 0.2 0.0 
dihedral_coeff 213 opls -0.305938 2.69739 -0.896807 0.74567 
dihedral_coeff 214 opls -0.305938 2.69739 -0.896807 0.74567 
dihedral_coeff 215 opls -0.305938 2.69739 -0.896807 0.74567 
dihedral_coeff 216 opls 1.3 -0.05 0.2 0.0 
dihedral_coeff 217 opls -0.305938 2.69739 -0.896807 0.74567 
dihedral_coeff 218 opls -0.305938 2.69739 -0.896807 0.74567 
dihedral_coeff 219 opls -0.305938 2.69739 -0.896807 0.74567 
dihedral_coeff 220 opls 1.3 -0.05 0.2 0.0 
dihedral_coeff 221 opls 1.3 -0.05 0.2 0.0 
dihedral_coeff 222 opls 1.3 -0.05 0.2 0.0 
dihedral_coeff 223 opls 1.3 -0.05 0.2 0.0 
dihedral_coeff 224 opls 1.3 -0.05 0.2 0.0 
dihedral_coeff 225 opls -0.305938 2.69739 -0.896807 0.74567 
dihedral_coeff 226 opls -0.305938 2.69739 -0.896807 0.74567 
dihedral_coeff 227 opls -0.305938 2.69739 -0.896807 0.74567 
dihedral_coeff 228 opls 1.3 -0.05 0.2 0.0 
dihedral_coeff 229 opls -0.305938 2.69739 -0.896807 0.74567 
dihedral_coeff 230 opls -0.305938 2.69739 -0.896807 0.74567 
dihedral_coeff 231 opls -0.305938 2.69739 -0.896807 0.74567 
dihedral_coeff 232 opls 1.3 -0.05 0.2 0.0 
dihedral_coeff 233 opls -0.305938 2.69739 -0.896807 0.74567 
dihedral_coeff 234 opls -0.305938 2.69739 -0.896807 0.74567 
dihedral_coeff 235 opls -0.305938 2.69739 -0.896807 0.74567 
dihedral_coeff 236 opls 1.3 -0.05 0.2 0.0 
dihedral_coeff 237 opls 1.3 -0.05 0.2 0.0 
dihedral_coeff 238 opls 1.3 -0.05 0.2 0.0 
dihedral_coeff 239 opls 1.3 -0.05 0.2 0.0 
dihedral_coeff 240 opls 1.3 -0.05 0.2 0.0 
dihedral_coeff 241 opls 1.3 -0.05 0.2 0.0 
dihedral_coeff 242 opls 1.3 -0.05 0.2 0.0 
dihedral_coeff 243 opls 1.3 -0.05 0.2 0.0 
dihedral_coeff 244 opls 1.3 -0.05 0.2 0.0 
dihedral_coeff 245 opls 1.3 -0.05 0.2 0.0 
dihedral_coeff 246 opls 1.3 -0.05 0.2 0.0 
dihedral_coeff 247 opls 1.3 -0.05 0.2 0.0 
dihedral_coeff 248 opls 1.3 -0.05 0.2 0.0 
dihedral_coeff 249 opls 1.3 -0.05 0.2 0.0 
dihedral_coeff 250 opls 1.3 -0.05 0.2 0.0 
dihedral_coeff 251 opls 1.3 -0.05 0.2 0.0 
dihedral_coeff 252 opls 1.3 -0.05 0.2 0.0 
dihedral_coeff 253 opls 1.3 -0.05 0.2 0.0 
dihedral_coeff 254 opls 1.3 -0.05 0.2 0.0 
dihedral_coeff 255 opls 1.3 -0.05 0.2 0.0 
dihedral_coeff 256 opls 1.3 -0.05 0.2 0.0 
dihedral_coeff 257 opls 1.3 -0.05 0.2 0.0 
dihedral_coeff 258 opls 1.3 -0.05 0.2 0.0 
dihedral_coeff 259 opls 1.3 -0.05 0.2 0.0 
dihedral_coeff 260 opls 1.3 -0.05 0.2 0.0 
dihedral_coeff 261 opls 1.3 -0.05 0.2 0.0 
dihedral_coeff 262 opls 1.3 -0.05 0.2 0.0 
dihedral_coeff 263 opls 1.3 -0.05 0.2 0.0 
dihedral_coeff 264 opls 1.3 -0.05 0.2 0.0 
dihedral_coeff 265 opls 1.3 -0.05 0.2 0.0 
dihedral_coeff 266 opls 1.3 -0.05 0.2 0.0 
dihedral_coeff 267 opls 1.3 -0.05 0.2 0.0 
dihedral_coeff 268 opls 1.3 -0.05 0.2 0.0 
dihedral_coeff 269 opls 1.3 -0.05 0.2 0.0 
dihedral_coeff 270 opls 1.3 -0.05 0.2 0.0 
dihedral_coeff 271 opls 1.3 -0.05 0.2 0.0 
dihedral_coeff 272 opls 1.3 -0.05 0.2 0.0 
dihedral_coeff 273 opls 1.3 -0.05 0.2 0.0 
dihedral_coeff 274 opls 1.3 -0.05 0.2 0.0 
dihedral_coeff 275 opls 1.3 -0.05 0.2 0.0 
dihedral_coeff 276 opls 1.3 -0.05 0.2 0.0 
dihedral_coeff 277 opls 1.3 -0.05 0.2 0.0 
dihedral_coeff 278 opls 1.3 -0.05 0.2 0.0 
dihedral_coeff 279 opls 1.3 -0.05 0.2 0.0 
dihedral_coeff 280 opls 1.3 -0.05 0.2 0.0 
dihedral_coeff 281 opls 1.3 -0.05 0.2 0.0 
dihedral_coeff 282 opls 1.3 -0.05 0.2 0.0 
dihedral_coeff 283 opls 1.3 -0.05 0.2 0.0 
dihedral_coeff 284 opls 1.3 -0.05 0.2 0.0 
dihedral_coeff 285 opls 1.3 -0.05 0.2 0.0 
dihedral_coeff 286 opls 1.3 -0.05 0.2 0.0 
dihedral_coeff 287 opls 1.3 -0.05 0.2 0.0 
dihedral_coeff 288 opls 1.3 -0.05 0.2 0.0 
dihedral_coeff 289 opls 1.3 -0.05 0.2 0.0 
dihedral_coeff 290 opls 1.3 -0.05 0.2 0.0 
dihedral_coeff 291 opls 1.3 -0.05 0.2 0.0 
dihedral_coeff 292 opls 1.3 -0.05 0.2 0.0 
dihedral_coeff 293 opls 1.3 -0.05 0.2 0.0 
dihedral_coeff 294 opls 1.3 -0.05 0.2 0.0 
dihedral_coeff 295 opls 1.3 -0.05 0.2 0.0 
dihedral_coeff 296 opls 1.3 -0.05 0.2 0.0 
dihedral_coeff 297 opls 1.3 -0.05 0.2 0.0 
dihedral_coeff 298 opls 1.3 -0.05 0.2 0.0 
dihedral_coeff 299 opls 1.3 -0.05 0.2 0.0 
dihedral_coeff 300 opls 1.3 -0.05 0.2 0.0 
dihedral_coeff 301 opls 1.3 -0.05 0.2 0.0 
dihedral_coeff 302 opls 1.3 -0.05 0.2 0.0 
dihedral_coeff 303 opls 1.3 -0.05 0.2 0.0 
dihedral_coeff 304 opls 1.3 -0.05 0.2 0.0 
dihedral_coeff 305 opls 1.3 -0.05 0.2 0.0 
dihedral_coeff 306 opls 1.3 -0.05 0.2 0.0 
dihedral_coeff 307 opls 1.3 -0.05 0.2 0.0 
dihedral_coeff 308 opls 1.3 -0.05 0.2 0.0 
dihedral_coeff 309 opls 1.3 -0.05 0.2 0.0 
dihedral_coeff 310 opls 1.3 -0.05 0.2 0.0 
dihedral_coeff 311 opls 1.3 -0.05 0.2 0.0 
dihedral_coeff 312 opls 1.3 -0.05 0.2 0.0 
dihedral_coeff 313 opls 1.3 -0.05 0.2 0.0 
dihedral_coeff 314 opls 1.3 -0.05 0.2 0.0 
dihedral_coeff 315 opls 1.3 -0.05 0.2 0.0 
dihedral_coeff 316 opls 1.3 -0.05 0.2 0.0 
dihedral_coeff 317 opls 1.3 -0.05 0.2 0.0 
dihedral_coeff 318 opls 1.3 -0.05 0.2 0.0 
dihedral_coeff 319 opls 1.3 -0.05 0.2 0.0 
dihedral_coeff 320 opls 1.3 -0.05 0.2 0.0 
dihedral_coeff 321 opls 0.0 0.0 0.3 0.0 
dihedral_coeff 322 opls 0.0 0.0 0.3 0.0 
dihedral_coeff 323 opls 0.0 0.0 0.3 0.0 
dihedral_coeff 324 opls 0.0 0.0 0.3 0.0 
dihedral_coeff 325 opls 0.0 0.0 0.3 0.0 
dihedral_coeff 326 opls 0.0 0.0 0.3 0.0 
dihedral_coeff 327 opls 0.0 0.0 0.3 0.0 
dihedral_coeff 328 opls 0.0 0.0 0.3 0.0 
dihedral_coeff 329 opls 0.0 0.0 0.3 0.0 
dihedral_coeff 330 opls 0.0 0.0 0.3 0.0 
dihedral_coeff 331 opls 0.0 0.0 0.3 0.0 
dihedral_coeff 332 opls 0.0 0.0 0.3 0.0 
dihedral_coeff 333 opls 0.0 0.0 0.3 0.0 
dihedral_coeff 334 opls 0.0 0.0 0.3 0.0 
dihedral_coeff 335 opls 0.0 0.0 0.3 0.0 
dihedral_coeff 336 opls 0.0 0.0 0.3 0.0 
dihedral_coeff 337 opls 0.0 0.0 0.3 0.0 
dihedral_coeff 338 opls 0.0 0.0 0.3 0.0 
dihedral_coeff 339 opls 0.0 0.0 0.3 0.0 
dihedral_coeff 340 opls 0.0 0.0 0.3 0.0 
dihedral_coeff 341 opls 0.0 0.0 0.3 0.0 
dihedral_coeff 342 opls 0.0 0.0 0.3 0.0 
dihedral_coeff 343 opls 0.0 0.0 0.3 0.0 
dihedral_coeff 344 opls 0.0 0.0 0.3 0.0 
dihedral_coeff 345 opls 0.0 0.0 0.3 0.0 
dihedral_coeff 346 opls 0.0 0.0 0.3 0.0 
dihedral_coeff 347 opls 0.0 0.0 0.3 0.0 
dihedral_coeff 348 opls 0.0 0.0 0.3 0.0 
dihedral_coeff 349 opls 0.0 0.0 0.3 0.0 
dihedral_coeff 350 opls 0.0 0.0 0.3 0.0 
dihedral_coeff 351 opls 0.0 0.0 0.3 0.0 
dihedral_coeff 352 opls 0.0 0.0 0.3 0.0 
dihedral_coeff 353 opls 0.0 0.0 0.3 0.0 
dihedral_coeff 354 opls 0.0 0.0 0.3 0.0 
dihedral_coeff 355 opls 0.0 0.0 0.3 0.0 
dihedral_coeff 356 opls 0.0 0.0 0.3 0.0 
dihedral_coeff 357 opls 0.0 0.0 0.3 0.0 
dihedral_coeff 358 opls 0.0 0.0 0.3 0.0 
dihedral_coeff 359 opls 0.0 0.0 0.3 0.0 
dihedral_coeff 360 opls 0.0 0.0 0.3 0.0 
dihedral_coeff 361 opls 0.0 0.0 0.3 0.0 
dihedral_coeff 362 opls 0.0 0.0 0.3 0.0 
dihedral_coeff 363 opls 0.0 0.0 0.3 0.0 
dihedral_coeff 364 opls 0.0 0.0 0.3 0.0 
dihedral_coeff 365 opls 0.0 0.0 0.3 0.0 
dihedral_coeff 366 opls 0.0 0.0 0.3 0.0 
dihedral_coeff 367 opls 0.0 0.0 0.3 0.0 
dihedral_coeff 368 opls 0.0 0.0 0.3 0.0 
dihedral_coeff 369 opls 0.0 0.0 0.3 0.0 
dihedral_coeff 370 opls 0.0 0.0 0.3 0.0 
dihedral_coeff 371 opls 0.0 0.0 0.3 0.0 
dihedral_coeff 372 opls 0.0 0.0 0.3 0.0 
dihedral_coeff 373 opls 0.0 0.0 0.3 0.0 
dihedral_coeff 374 opls 0.0 0.0 0.3 0.0 
dihedral_coeff 375 opls 0.0 0.0 0.3 0.0 
dihedral_coeff 376 opls 0.0 0.0 0.3 0.0 
dihedral_coeff 377 opls 0.0 0.0 0.3 0.0 
dihedral_coeff 378 opls 0.0 0.0 0.3 0.0 
dihedral_coeff 379 opls 0.0 0.0 0.3 0.0 
dihedral_coeff 380 opls 0.0 0.0 0.3 0.0 
dihedral_coeff 381 opls 0.0 0.0 0.3 0.0 
dihedral_coeff 382 opls 0.0 0.0 0.3 0.0 
dihedral_coeff 383 opls 0.0 0.0 0.3 0.0 
dihedral_coeff 384 opls 0.0 0.0 0.3 0.0 
dihedral_coeff 385 opls 0.0 0.0 0.3 0.0 
dihedral_coeff 386 opls 0.0 0.0 0.3 0.0 
dihedral_coeff 387 opls 0.0 0.0 0.3 0.0 
dihedral_coeff 388 opls 0.0 0.0 0.3 0.0 
dihedral_coeff 389 opls 0.0 0.0 0.3 0.0 
dihedral_coeff 390 opls 0.0 0.0 0.3 0.0 
dihedral_coeff 391 opls 0.0 0.0 0.3 0.0 
dihedral_coeff 392 opls 0.0 0.0 0.3 0.0 
dihedral_coeff 393 opls 0.0 0.0 0.3 0.0 
dihedral_coeff 394 opls 0.0 0.0 0.3 0.0 
dihedral_coeff 395 opls 0.0 0.0 0.3 0.0 
dihedral_coeff 396 opls 0.0 0.0 0.3 0.0 
dihedral_coeff 397 opls 0.0 0.0 0.3 0.0 
dihedral_coeff 398 opls 0.0 0.0 0.3 0.0 
dihedral_coeff 399 opls 0.0 0.0 0.3 0.0 
dihedral_coeff 400 opls 0.0 0.0 0.3 0.0 
