
package gpu force/neigh ${GPU} ${GPU} -1.0

# ----------------- Init Section -----------------
units real
atom_style full
bond_style hybrid harmonic
angle_style hybrid harmonic
dihedral_style hybrid opls
improper_style hybrid harmonic
pair_style lj/cut/coul/cut 9.0 9.0  # NOTE: use coul/cut to avoid to avoid drastic boxL change
pair_modify mix geometric
special_bonds lj/coul 0.0 0.0 0.5

#pair_style lj/cut/coul/long 9.0 9.0
#kspace_style pppm 0.0001 

neigh_modify every 1 check yes

# ----------------- Atom Definition Section -----------------
read_data ./lammps_inputs/start_data/input_${trial}.data

# ----------------- Settings Section -----------------
include "./lammps_inputs/generation/system.in.settings"

# ----------------- Charges Section -----------------
include "./lammps_inputs/generation/system.in.charges"


# ----------------------------------
## Group IDs (Note the Atom types)
# ----------------------------------
label looptypes
group heavy type ${types_heavy}
group light type ${types_light}
next types_heavy
next types_light
jump SELF looptypes


minimize 1.0e-5 1.0e-7 1000 10000

##----------------------------
## DUMP
# ----------------------------------
dump 1 all xyz 1000 ./generation/trajectory/trajectory_${usic}_${trial}_${namestring}_T${Temp}.gen.xyz
dump_modify 1 append yes

# ----------------------------------
## FIX
# ----------------------------------
fix 1 all momentum 1000 linear 1 1 1 angular

# ----------------------------------
## START WITH VERY HIGH TEMPERATURE
# ----------------------------------
variable T equal ${Temp}/1000.0

#fix 2 all nvt temp ${T} ${T} 100.0

fix 2 all npt temp ${T} ${T} 100.0 iso 1.0 1.0 1000.0 drag 1.0

# ----------------------------------
## THERMO_STYLE
# ----------------------------------
thermo_style custom step temp press pe ke etotal ebond eangle epair lx ly lz vol density dt time cpu tpcpu spcpu

# ----------------------------------
## RUN_STYLE
# ----------------------------------
run_style verlet

# ----------------------------------
## VELOCITY
# ----------------------------------
velocity all create ${T} ${vseed} mom yes rot yes dist gaussian

# ----------------------------------
## Saving Frequency
# ----------------------------------
variable ts_save equal floor(${steps_gen}*0.02)
dump_modify 1 every ${ts_save}

# ----------------------------------
## GENERATION RUN
# ----------------------------------
timestep ${ts}
thermo ${ts_save}
run ${steps_gen}
# ----------------------------------

# ----------------------------------
## GENERATION RESTART
# ----------------------------------
write_restart ./generation/restart/restart_${usic}_${trial}_${namestring}_T${Temp}.gen.restart

