pair_coeff 1 1 0.066 3.5 
pair_coeff 2 2 0.066 3.5 
pair_coeff 3 3 0.066 3.5 
pair_coeff 4 4 0.03 2.5 
pair_coeff 5 5 0.105 3.75 
pair_coeff 6 6 0.21 2.96 
pair_coeff 7 7 0.17 3.0 
pair_coeff 8 8 0.015 2.42 
pair_coeff 9 9 0.066 3.5 
pair_coeff 10 10 0.17 3.3 
pair_coeff 11 11 0.066 3.5 
pair_coeff 12 12 0.066 3.5 
pair_coeff 13 13 0.015 2.5 
pair_coeff 14 14 0.066 3.5 
bond_coeff 1 harmonic 350.0 1.51 
bond_coeff 2 harmonic 570.0 1.229 
bond_coeff 3 harmonic 317.0 1.522 
bond_coeff 4 harmonic 317.0 1.522 
bond_coeff 5 harmonic 317.0 1.522 
bond_coeff 6 harmonic 317.0 1.522 
bond_coeff 7 harmonic 317.0 1.522 
bond_coeff 8 harmonic 317.0 1.522 
bond_coeff 9 harmonic 214.0 1.327 
bond_coeff 10 harmonic 317.0 1.522 
bond_coeff 11 harmonic 340.0 1.09 
bond_coeff 12 harmonic 340.0 1.09 
bond_coeff 13 harmonic 340.0 1.09 
bond_coeff 14 harmonic 268.0 1.529 
bond_coeff 15 harmonic 268.0 1.529 
bond_coeff 16 harmonic 268.0 1.529 
bond_coeff 17 harmonic 268.0 1.529 
bond_coeff 18 harmonic 268.0 1.529 
bond_coeff 19 harmonic 268.0 1.529 
bond_coeff 20 harmonic 268.0 1.529 
bond_coeff 21 harmonic 268.0 1.529 
bond_coeff 22 harmonic 268.0 1.529 
bond_coeff 23 harmonic 268.0 1.529 
bond_coeff 24 harmonic 268.0 1.529 
bond_coeff 25 harmonic 268.0 1.529 
bond_coeff 26 harmonic 268.0 1.529 
bond_coeff 27 harmonic 268.0 1.529 
bond_coeff 28 harmonic 268.0 1.529 
bond_coeff 29 harmonic 268.0 1.529 
bond_coeff 30 harmonic 268.0 1.529 
bond_coeff 31 harmonic 268.0 1.529 
bond_coeff 32 harmonic 268.0 1.529 
bond_coeff 33 harmonic 268.0 1.529 
bond_coeff 34 harmonic 268.0 1.529 
bond_coeff 35 harmonic 268.0 1.529 
bond_coeff 36 harmonic 268.0 1.529 
bond_coeff 37 harmonic 268.0 1.529 
bond_coeff 38 harmonic 268.0 1.529 
bond_coeff 39 harmonic 268.0 1.529 
bond_coeff 40 harmonic 268.0 1.529 
bond_coeff 41 harmonic 268.0 1.529 
bond_coeff 42 harmonic 268.0 1.529 
bond_coeff 43 harmonic 268.0 1.529 
bond_coeff 44 harmonic 268.0 1.529 
bond_coeff 45 harmonic 268.0 1.529 
bond_coeff 46 harmonic 268.0 1.529 
bond_coeff 47 harmonic 268.0 1.529 
bond_coeff 48 harmonic 268.0 1.529 
bond_coeff 49 harmonic 268.0 1.529 
bond_coeff 50 harmonic 320.0 1.41 
bond_coeff 51 harmonic 320.0 1.41 
bond_coeff 52 harmonic 320.0 1.41 
bond_coeff 53 harmonic 320.0 1.41 
bond_coeff 54 harmonic 320.0 1.41 
bond_coeff 55 harmonic 320.0 1.41 
bond_coeff 56 harmonic 382.0 1.448 
bond_coeff 57 harmonic 382.0 1.448 
bond_coeff 58 harmonic 382.0 1.448 
bond_coeff 59 harmonic 382.0 1.448 
bond_coeff 60 harmonic 382.0 1.448 
bond_coeff 61 harmonic 382.0 1.448 
bond_coeff 62 harmonic 340.0 1.09 
bond_coeff 63 harmonic 340.0 1.09 
bond_coeff 64 harmonic 340.0 1.09 
bond_coeff 65 harmonic 340.0 1.09 
bond_coeff 66 harmonic 340.0 1.09 
bond_coeff 67 harmonic 340.0 1.09 
bond_coeff 68 harmonic 340.0 1.09 
bond_coeff 69 harmonic 340.0 1.09 
bond_coeff 70 harmonic 340.0 1.09 
bond_coeff 71 harmonic 340.0 1.09 
bond_coeff 72 harmonic 340.0 1.09 
bond_coeff 73 harmonic 340.0 1.09 
bond_coeff 74 harmonic 340.0 1.09 
bond_coeff 75 harmonic 340.0 1.09 
bond_coeff 76 harmonic 340.0 1.09 
bond_coeff 77 harmonic 340.0 1.09 
bond_coeff 78 harmonic 340.0 1.09 
bond_coeff 79 harmonic 340.0 1.09 
bond_coeff 80 harmonic 250.0 1.47 
bond_coeff 81 harmonic 320.0 1.45 
bond_coeff 82 harmonic 350.0 1.445 
angle_coeff 1 harmonic 80.0 121.4 
angle_coeff 2 harmonic 80.0 126.0 
angle_coeff 3 harmonic 70.0 116.0 
angle_coeff 4 harmonic 70.0 116.0 
angle_coeff 5 harmonic 70.0 116.0 
angle_coeff 6 harmonic 70.0 116.0 
angle_coeff 7 harmonic 70.0 116.0 
angle_coeff 8 harmonic 70.0 116.0 
angle_coeff 9 harmonic 70.0 116.0 
angle_coeff 10 harmonic 70.0 116.0 
angle_coeff 11 harmonic 70.0 116.0 
angle_coeff 12 harmonic 70.0 116.0 
angle_coeff 13 harmonic 70.0 116.0 
angle_coeff 14 harmonic 70.0 116.0 
angle_coeff 15 harmonic 70.0 116.0 
angle_coeff 16 harmonic 70.0 116.0 
angle_coeff 17 harmonic 70.0 116.0 
angle_coeff 18 harmonic 70.0 116.0 
angle_coeff 19 harmonic 70.0 116.0 
angle_coeff 20 harmonic 70.0 116.0 
angle_coeff 21 harmonic 70.0 116.0 
angle_coeff 22 harmonic 70.0 116.0 
angle_coeff 23 harmonic 70.0 116.0 
angle_coeff 24 harmonic 70.0 116.0 
angle_coeff 25 harmonic 70.0 116.0 
angle_coeff 26 harmonic 70.0 116.0 
angle_coeff 27 harmonic 70.0 116.0 
angle_coeff 28 harmonic 70.0 116.0 
angle_coeff 29 harmonic 70.0 116.0 
angle_coeff 30 harmonic 70.0 116.0 
angle_coeff 31 harmonic 70.0 116.0 
angle_coeff 32 harmonic 70.0 116.0 
angle_coeff 33 harmonic 70.0 116.0 
angle_coeff 34 harmonic 70.0 116.0 
angle_coeff 35 harmonic 70.0 116.0 
angle_coeff 36 harmonic 70.0 116.0 
angle_coeff 37 harmonic 70.0 116.0 
angle_coeff 38 harmonic 70.0 116.0 
angle_coeff 39 harmonic 80.0 117.2 
angle_coeff 40 harmonic 80.0 117.2 
angle_coeff 41 harmonic 80.0 117.2 
angle_coeff 42 harmonic 80.0 117.2 
angle_coeff 43 harmonic 80.0 117.2 
angle_coeff 44 harmonic 80.0 117.2 
angle_coeff 45 harmonic 80.0 120.4 
angle_coeff 46 harmonic 80.0 120.4 
angle_coeff 47 harmonic 80.0 120.4 
angle_coeff 48 harmonic 80.0 120.4 
angle_coeff 49 harmonic 80.0 120.4 
angle_coeff 50 harmonic 80.0 120.4 
angle_coeff 51 harmonic 81.0 111.4 
angle_coeff 52 harmonic 81.0 111.4 
angle_coeff 53 harmonic 81.0 111.4 
angle_coeff 54 harmonic 81.0 111.4 
angle_coeff 55 harmonic 81.0 111.4 
angle_coeff 56 harmonic 81.0 111.4 
angle_coeff 57 harmonic 83.0 123.4 
angle_coeff 58 harmonic 70.0 116.0 
angle_coeff 59 harmonic 70.0 116.0 
angle_coeff 60 harmonic 70.0 116.0 
angle_coeff 61 harmonic 70.0 116.0 
angle_coeff 62 harmonic 70.0 116.0 
angle_coeff 63 harmonic 70.0 116.0 
angle_coeff 64 harmonic 80.0 120.4 
angle_coeff 65 harmonic 35.0 115.0 
angle_coeff 66 harmonic 35.0 115.0 
angle_coeff 67 harmonic 35.0 115.0 
angle_coeff 68 harmonic 35.0 115.0 
angle_coeff 69 harmonic 35.0 115.0 
angle_coeff 70 harmonic 35.0 115.0 
angle_coeff 71 harmonic 35.0 115.0 
angle_coeff 72 harmonic 35.0 115.0 
angle_coeff 73 harmonic 35.0 115.0 
angle_coeff 74 harmonic 35.0 115.0 
angle_coeff 75 harmonic 35.0 115.0 
angle_coeff 76 harmonic 35.0 115.0 
angle_coeff 77 harmonic 35.0 115.0 
angle_coeff 78 harmonic 35.0 115.0 
angle_coeff 79 harmonic 35.0 115.0 
angle_coeff 80 harmonic 35.0 115.0 
angle_coeff 81 harmonic 35.0 115.0 
angle_coeff 82 harmonic 35.0 115.0 
angle_coeff 83 harmonic 35.0 115.0 
angle_coeff 84 harmonic 35.0 115.0 
angle_coeff 85 harmonic 35.0 115.0 
angle_coeff 86 harmonic 35.0 115.0 
angle_coeff 87 harmonic 35.0 115.0 
angle_coeff 88 harmonic 35.0 115.0 
angle_coeff 89 harmonic 35.0 115.0 
angle_coeff 90 harmonic 35.0 115.0 
angle_coeff 91 harmonic 35.0 115.0 
angle_coeff 92 harmonic 35.0 123.0 
angle_coeff 93 harmonic 35.0 123.0 
angle_coeff 94 harmonic 35.0 123.0 
angle_coeff 95 harmonic 40.0 115.0 
angle_coeff 96 harmonic 40.0 115.0 
angle_coeff 97 harmonic 40.0 115.0 
angle_coeff 98 harmonic 63.0 111.1 
angle_coeff 99 harmonic 63.0 111.1 
angle_coeff 100 harmonic 63.0 111.1 
angle_coeff 101 harmonic 63.0 111.1 
angle_coeff 102 harmonic 63.0 111.1 
angle_coeff 103 harmonic 63.0 111.1 
angle_coeff 104 harmonic 58.35 112.7 
angle_coeff 105 harmonic 58.35 112.7 
angle_coeff 106 harmonic 58.35 112.7 
angle_coeff 107 harmonic 58.35 112.7 
angle_coeff 108 harmonic 58.35 112.7 
angle_coeff 109 harmonic 58.35 112.7 
angle_coeff 110 harmonic 58.35 112.7 
angle_coeff 111 harmonic 58.35 112.7 
angle_coeff 112 harmonic 58.35 112.7 
angle_coeff 113 harmonic 58.35 112.7 
angle_coeff 114 harmonic 58.35 112.7 
angle_coeff 115 harmonic 58.35 112.7 
angle_coeff 116 harmonic 58.35 112.7 
angle_coeff 117 harmonic 58.35 112.7 
angle_coeff 118 harmonic 58.35 112.7 
angle_coeff 119 harmonic 58.35 112.7 
angle_coeff 120 harmonic 58.35 112.7 
angle_coeff 121 harmonic 58.35 112.7 
angle_coeff 122 harmonic 58.35 112.7 
angle_coeff 123 harmonic 58.35 112.7 
angle_coeff 124 harmonic 58.35 112.7 
angle_coeff 125 harmonic 58.35 112.7 
angle_coeff 126 harmonic 58.35 112.7 
angle_coeff 127 harmonic 58.35 112.7 
angle_coeff 128 harmonic 58.35 112.7 
angle_coeff 129 harmonic 58.35 112.7 
angle_coeff 130 harmonic 58.35 112.7 
angle_coeff 131 harmonic 58.35 112.7 
angle_coeff 132 harmonic 58.35 112.7 
angle_coeff 133 harmonic 58.35 112.7 
angle_coeff 134 harmonic 58.35 112.7 
angle_coeff 135 harmonic 58.35 112.7 
angle_coeff 136 harmonic 58.35 112.7 
angle_coeff 137 harmonic 58.35 112.7 
angle_coeff 138 harmonic 58.35 112.7 
angle_coeff 139 harmonic 58.35 112.7 
angle_coeff 140 harmonic 58.35 112.7 
angle_coeff 141 harmonic 58.35 112.7 
angle_coeff 142 harmonic 58.35 112.7 
angle_coeff 143 harmonic 58.35 112.7 
angle_coeff 144 harmonic 58.35 112.7 
angle_coeff 145 harmonic 58.35 112.7 
angle_coeff 146 harmonic 58.35 112.7 
angle_coeff 147 harmonic 58.35 112.7 
angle_coeff 148 harmonic 58.35 112.7 
angle_coeff 149 harmonic 58.35 112.7 
angle_coeff 150 harmonic 58.35 112.7 
angle_coeff 151 harmonic 58.35 112.7 
angle_coeff 152 harmonic 58.35 112.7 
angle_coeff 153 harmonic 58.35 112.7 
angle_coeff 154 harmonic 58.35 112.7 
angle_coeff 155 harmonic 58.35 112.7 
angle_coeff 156 harmonic 58.35 112.7 
angle_coeff 157 harmonic 58.35 112.7 
angle_coeff 158 harmonic 58.35 112.7 
angle_coeff 159 harmonic 58.35 112.7 
angle_coeff 160 harmonic 58.35 112.7 
angle_coeff 161 harmonic 58.35 112.7 
angle_coeff 162 harmonic 58.35 112.7 
angle_coeff 163 harmonic 58.35 112.7 
angle_coeff 164 harmonic 58.35 112.7 
angle_coeff 165 harmonic 58.35 112.7 
angle_coeff 166 harmonic 58.35 112.7 
angle_coeff 167 harmonic 58.35 112.7 
angle_coeff 168 harmonic 58.35 112.7 
angle_coeff 169 harmonic 58.35 112.7 
angle_coeff 170 harmonic 58.35 112.7 
angle_coeff 171 harmonic 58.35 112.7 
angle_coeff 172 harmonic 58.35 112.7 
angle_coeff 173 harmonic 58.35 112.7 
angle_coeff 174 harmonic 58.35 112.7 
angle_coeff 175 harmonic 58.35 112.7 
angle_coeff 176 harmonic 58.35 112.7 
angle_coeff 177 harmonic 58.35 112.7 
angle_coeff 178 harmonic 58.35 112.7 
angle_coeff 179 harmonic 58.35 112.7 
angle_coeff 180 harmonic 58.35 112.7 
angle_coeff 181 harmonic 58.35 112.7 
angle_coeff 182 harmonic 58.35 112.7 
angle_coeff 183 harmonic 58.35 112.7 
angle_coeff 184 harmonic 58.35 112.7 
angle_coeff 185 harmonic 58.35 112.7 
angle_coeff 186 harmonic 58.35 112.7 
angle_coeff 187 harmonic 58.35 112.7 
angle_coeff 188 harmonic 58.35 112.7 
angle_coeff 189 harmonic 58.35 112.7 
angle_coeff 190 harmonic 58.35 112.7 
angle_coeff 191 harmonic 58.35 112.7 
angle_coeff 192 harmonic 58.35 112.7 
angle_coeff 193 harmonic 58.35 112.7 
angle_coeff 194 harmonic 58.35 112.7 
angle_coeff 195 harmonic 58.35 112.7 
angle_coeff 196 harmonic 58.35 112.7 
angle_coeff 197 harmonic 58.35 112.7 
angle_coeff 198 harmonic 58.35 112.7 
angle_coeff 199 harmonic 58.35 112.7 
angle_coeff 200 harmonic 58.35 112.7 
angle_coeff 201 harmonic 58.35 112.7 
angle_coeff 202 harmonic 58.35 112.7 
angle_coeff 203 harmonic 58.35 112.7 
angle_coeff 204 harmonic 58.35 112.7 
angle_coeff 205 harmonic 58.35 112.7 
angle_coeff 206 harmonic 58.35 112.7 
angle_coeff 207 harmonic 58.35 112.7 
angle_coeff 208 harmonic 58.35 112.7 
angle_coeff 209 harmonic 58.35 112.7 
angle_coeff 210 harmonic 58.35 112.7 
angle_coeff 211 harmonic 58.35 112.7 
angle_coeff 212 harmonic 58.35 112.7 
angle_coeff 213 harmonic 58.35 112.7 
angle_coeff 214 harmonic 58.35 112.7 
angle_coeff 215 harmonic 58.35 112.7 
angle_coeff 216 harmonic 58.35 112.7 
angle_coeff 217 harmonic 58.35 112.7 
angle_coeff 218 harmonic 58.35 112.7 
angle_coeff 219 harmonic 58.35 112.7 
angle_coeff 220 harmonic 58.35 112.7 
angle_coeff 221 harmonic 58.35 112.7 
angle_coeff 222 harmonic 58.35 112.7 
angle_coeff 223 harmonic 58.35 112.7 
angle_coeff 224 harmonic 58.35 112.7 
angle_coeff 225 harmonic 58.35 112.7 
angle_coeff 226 harmonic 58.35 112.7 
angle_coeff 227 harmonic 58.35 112.7 
angle_coeff 228 harmonic 58.35 112.7 
angle_coeff 229 harmonic 58.35 112.7 
angle_coeff 230 harmonic 58.35 112.7 
angle_coeff 231 harmonic 58.35 112.7 
angle_coeff 232 harmonic 58.35 112.7 
angle_coeff 233 harmonic 58.35 112.7 
angle_coeff 234 harmonic 58.35 112.7 
angle_coeff 235 harmonic 58.35 112.7 
angle_coeff 236 harmonic 58.35 112.7 
angle_coeff 237 harmonic 58.35 112.7 
angle_coeff 238 harmonic 58.35 112.7 
angle_coeff 239 harmonic 58.35 112.7 
angle_coeff 240 harmonic 58.35 112.7 
angle_coeff 241 harmonic 58.35 112.7 
angle_coeff 242 harmonic 58.35 112.7 
angle_coeff 243 harmonic 58.35 112.7 
angle_coeff 244 harmonic 58.35 112.7 
angle_coeff 245 harmonic 58.35 112.7 
angle_coeff 246 harmonic 58.35 112.7 
angle_coeff 247 harmonic 58.35 112.7 
angle_coeff 248 harmonic 58.35 112.7 
angle_coeff 249 harmonic 58.35 112.7 
angle_coeff 250 harmonic 58.35 112.7 
angle_coeff 251 harmonic 58.35 112.7 
angle_coeff 252 harmonic 58.35 112.7 
angle_coeff 253 harmonic 58.35 112.7 
angle_coeff 254 harmonic 58.35 112.7 
angle_coeff 255 harmonic 58.35 112.7 
angle_coeff 256 harmonic 58.35 112.7 
angle_coeff 257 harmonic 58.35 112.7 
angle_coeff 258 harmonic 58.35 112.7 
angle_coeff 259 harmonic 58.35 112.7 
angle_coeff 260 harmonic 58.35 112.7 
angle_coeff 261 harmonic 58.35 112.7 
angle_coeff 262 harmonic 58.35 112.7 
angle_coeff 263 harmonic 58.35 112.7 
angle_coeff 264 harmonic 58.35 112.7 
angle_coeff 265 harmonic 58.35 112.7 
angle_coeff 266 harmonic 58.35 112.7 
angle_coeff 267 harmonic 58.35 112.7 
angle_coeff 268 harmonic 58.35 112.7 
angle_coeff 269 harmonic 58.35 112.7 
angle_coeff 270 harmonic 58.35 112.7 
angle_coeff 271 harmonic 58.35 112.7 
angle_coeff 272 harmonic 58.35 112.7 
angle_coeff 273 harmonic 58.35 112.7 
angle_coeff 274 harmonic 58.35 112.7 
angle_coeff 275 harmonic 58.35 112.7 
angle_coeff 276 harmonic 58.35 112.7 
angle_coeff 277 harmonic 58.35 112.7 
angle_coeff 278 harmonic 58.35 112.7 
angle_coeff 279 harmonic 58.35 112.7 
angle_coeff 280 harmonic 58.35 112.7 
angle_coeff 281 harmonic 58.35 112.7 
angle_coeff 282 harmonic 58.35 112.7 
angle_coeff 283 harmonic 58.35 112.7 
angle_coeff 284 harmonic 58.35 112.7 
angle_coeff 285 harmonic 58.35 112.7 
angle_coeff 286 harmonic 58.35 112.7 
angle_coeff 287 harmonic 58.35 112.7 
angle_coeff 288 harmonic 58.35 112.7 
angle_coeff 289 harmonic 58.35 112.7 
angle_coeff 290 harmonic 58.35 112.7 
angle_coeff 291 harmonic 58.35 112.7 
angle_coeff 292 harmonic 58.35 112.7 
angle_coeff 293 harmonic 58.35 112.7 
angle_coeff 294 harmonic 58.35 112.7 
angle_coeff 295 harmonic 58.35 112.7 
angle_coeff 296 harmonic 58.35 112.7 
angle_coeff 297 harmonic 58.35 112.7 
angle_coeff 298 harmonic 58.35 112.7 
angle_coeff 299 harmonic 58.35 112.7 
angle_coeff 300 harmonic 58.35 112.7 
angle_coeff 301 harmonic 58.35 112.7 
angle_coeff 302 harmonic 58.35 112.7 
angle_coeff 303 harmonic 58.35 112.7 
angle_coeff 304 harmonic 58.35 112.7 
angle_coeff 305 harmonic 58.35 112.7 
angle_coeff 306 harmonic 58.35 112.7 
angle_coeff 307 harmonic 58.35 112.7 
angle_coeff 308 harmonic 58.35 112.7 
angle_coeff 309 harmonic 58.35 112.7 
angle_coeff 310 harmonic 58.35 112.7 
angle_coeff 311 harmonic 58.35 112.7 
angle_coeff 312 harmonic 58.35 112.7 
angle_coeff 313 harmonic 58.35 112.7 
angle_coeff 314 harmonic 58.35 112.7 
angle_coeff 315 harmonic 58.35 112.7 
angle_coeff 316 harmonic 58.35 112.7 
angle_coeff 317 harmonic 58.35 112.7 
angle_coeff 318 harmonic 58.35 112.7 
angle_coeff 319 harmonic 58.35 112.7 
angle_coeff 320 harmonic 63.0 111.1 
angle_coeff 321 harmonic 63.0 111.1 
angle_coeff 322 harmonic 63.0 111.1 
angle_coeff 323 harmonic 63.0 111.1 
angle_coeff 324 harmonic 63.0 111.1 
angle_coeff 325 harmonic 63.0 111.1 
angle_coeff 326 harmonic 63.0 111.1 
angle_coeff 327 harmonic 63.0 111.1 
angle_coeff 328 harmonic 63.0 111.1 
angle_coeff 329 harmonic 63.0 111.1 
angle_coeff 330 harmonic 63.0 111.1 
angle_coeff 331 harmonic 63.0 111.1 
angle_coeff 332 harmonic 63.0 111.1 
angle_coeff 333 harmonic 63.0 111.1 
angle_coeff 334 harmonic 63.0 111.1 
angle_coeff 335 harmonic 63.0 111.1 
angle_coeff 336 harmonic 63.0 111.1 
angle_coeff 337 harmonic 63.0 111.1 
angle_coeff 338 harmonic 63.0 111.1 
angle_coeff 339 harmonic 63.0 111.1 
angle_coeff 340 harmonic 63.0 111.1 
angle_coeff 341 harmonic 63.0 111.1 
angle_coeff 342 harmonic 63.0 111.1 
angle_coeff 343 harmonic 63.0 111.1 
angle_coeff 344 harmonic 63.0 111.1 
angle_coeff 345 harmonic 63.0 111.1 
angle_coeff 346 harmonic 63.0 111.1 
angle_coeff 347 harmonic 63.0 111.1 
angle_coeff 348 harmonic 63.0 111.1 
angle_coeff 349 harmonic 63.0 111.1 
angle_coeff 350 harmonic 63.0 111.1 
angle_coeff 351 harmonic 63.0 111.1 
angle_coeff 352 harmonic 63.0 111.1 
angle_coeff 353 harmonic 63.0 111.1 
angle_coeff 354 harmonic 63.0 111.1 
angle_coeff 355 harmonic 63.0 111.1 
angle_coeff 356 harmonic 50.0 109.5 
angle_coeff 357 harmonic 50.0 109.5 
angle_coeff 358 harmonic 50.0 109.5 
angle_coeff 359 harmonic 50.0 109.5 
angle_coeff 360 harmonic 50.0 109.5 
angle_coeff 361 harmonic 50.0 109.5 
angle_coeff 362 harmonic 50.0 109.5 
angle_coeff 363 harmonic 50.0 109.5 
angle_coeff 364 harmonic 50.0 109.5 
angle_coeff 365 harmonic 50.0 109.5 
angle_coeff 366 harmonic 50.0 109.5 
angle_coeff 367 harmonic 50.0 109.5 
angle_coeff 368 harmonic 50.0 109.5 
angle_coeff 369 harmonic 50.0 109.5 
angle_coeff 370 harmonic 50.0 109.5 
angle_coeff 371 harmonic 50.0 109.5 
angle_coeff 372 harmonic 50.0 109.5 
angle_coeff 373 harmonic 50.0 109.5 
angle_coeff 374 harmonic 50.0 109.5 
angle_coeff 375 harmonic 50.0 109.5 
angle_coeff 376 harmonic 50.0 109.5 
angle_coeff 377 harmonic 50.0 109.5 
angle_coeff 378 harmonic 50.0 109.5 
angle_coeff 379 harmonic 50.0 109.5 
angle_coeff 380 harmonic 50.0 109.5 
angle_coeff 381 harmonic 50.0 109.5 
angle_coeff 382 harmonic 50.0 109.5 
angle_coeff 383 harmonic 50.0 109.5 
angle_coeff 384 harmonic 50.0 109.5 
angle_coeff 385 harmonic 50.0 109.5 
angle_coeff 386 harmonic 50.0 109.5 
angle_coeff 387 harmonic 50.0 109.5 
angle_coeff 388 harmonic 50.0 109.5 
angle_coeff 389 harmonic 50.0 109.5 
angle_coeff 390 harmonic 50.0 109.5 
angle_coeff 391 harmonic 50.0 109.5 
angle_coeff 392 harmonic 50.0 109.5 
angle_coeff 393 harmonic 50.0 109.5 
angle_coeff 394 harmonic 50.0 109.5 
angle_coeff 395 harmonic 50.0 109.5 
angle_coeff 396 harmonic 50.0 109.5 
angle_coeff 397 harmonic 50.0 109.5 
angle_coeff 398 harmonic 56.2 109.47 
angle_coeff 399 harmonic 56.2 109.47 
angle_coeff 400 harmonic 56.2 109.47 
angle_coeff 401 harmonic 56.2 109.47 
angle_coeff 402 harmonic 56.2 109.47 
angle_coeff 403 harmonic 56.2 109.47 
angle_coeff 404 harmonic 56.2 109.47 
angle_coeff 405 harmonic 56.2 109.47 
angle_coeff 406 harmonic 56.2 109.47 
angle_coeff 407 harmonic 56.2 109.47 
angle_coeff 408 harmonic 56.2 109.47 
angle_coeff 409 harmonic 56.2 109.47 
angle_coeff 410 harmonic 56.2 109.47 
angle_coeff 411 harmonic 56.2 109.47 
angle_coeff 412 harmonic 56.2 109.47 
angle_coeff 413 harmonic 56.2 109.47 
angle_coeff 414 harmonic 56.2 109.47 
angle_coeff 415 harmonic 56.2 109.47 
angle_coeff 416 harmonic 56.2 109.47 
angle_coeff 417 harmonic 56.2 109.47 
angle_coeff 418 harmonic 56.2 109.47 
angle_coeff 419 harmonic 56.2 109.47 
angle_coeff 420 harmonic 56.2 109.47 
angle_coeff 421 harmonic 56.2 109.47 
angle_coeff 422 harmonic 56.2 109.47 
angle_coeff 423 harmonic 56.2 109.47 
angle_coeff 424 harmonic 56.2 109.47 
angle_coeff 425 harmonic 56.2 109.47 
angle_coeff 426 harmonic 56.2 109.47 
angle_coeff 427 harmonic 56.2 109.47 
angle_coeff 428 harmonic 56.2 109.47 
angle_coeff 429 harmonic 56.2 109.47 
angle_coeff 430 harmonic 56.2 109.47 
angle_coeff 431 harmonic 56.2 109.47 
angle_coeff 432 harmonic 56.2 109.47 
angle_coeff 433 harmonic 56.2 109.47 
angle_coeff 434 harmonic 80.0 111.2 
angle_coeff 435 harmonic 80.0 111.2 
angle_coeff 436 harmonic 80.0 111.2 
angle_coeff 437 harmonic 80.0 111.2 
angle_coeff 438 harmonic 80.0 111.2 
angle_coeff 439 harmonic 80.0 111.2 
angle_coeff 440 harmonic 33.0 107.8 
angle_coeff 441 harmonic 33.0 107.8 
angle_coeff 442 harmonic 33.0 107.8 
angle_coeff 443 harmonic 33.0 107.8 
angle_coeff 444 harmonic 33.0 107.8 
angle_coeff 445 harmonic 33.0 107.8 
angle_coeff 446 harmonic 33.0 107.8 
angle_coeff 447 harmonic 33.0 107.8 
angle_coeff 448 harmonic 33.0 107.8 
angle_coeff 449 harmonic 33.0 107.8 
angle_coeff 450 harmonic 33.0 107.8 
angle_coeff 451 harmonic 33.0 107.8 
angle_coeff 452 harmonic 33.0 107.8 
angle_coeff 453 harmonic 33.0 107.8 
angle_coeff 454 harmonic 33.0 107.8 
angle_coeff 455 harmonic 33.0 107.8 
angle_coeff 456 harmonic 33.0 107.8 
angle_coeff 457 harmonic 33.0 107.8 
angle_coeff 458 harmonic 33.0 107.8 
angle_coeff 459 harmonic 33.0 107.8 
angle_coeff 460 harmonic 33.0 107.8 
angle_coeff 461 harmonic 33.0 107.8 
angle_coeff 462 harmonic 33.0 107.8 
angle_coeff 463 harmonic 33.0 107.8 
angle_coeff 464 harmonic 33.0 107.8 
angle_coeff 465 harmonic 33.0 107.8 
angle_coeff 466 harmonic 33.0 107.8 
angle_coeff 467 harmonic 33.0 107.8 
angle_coeff 468 harmonic 33.0 107.8 
angle_coeff 469 harmonic 33.0 107.8 
angle_coeff 470 harmonic 33.0 107.8 
angle_coeff 471 harmonic 33.0 107.8 
angle_coeff 472 harmonic 33.0 107.8 
angle_coeff 473 harmonic 33.0 107.8 
angle_coeff 474 harmonic 33.0 107.8 
angle_coeff 475 harmonic 33.0 107.8 
angle_coeff 476 harmonic 33.0 107.8 
angle_coeff 477 harmonic 33.0 107.8 
angle_coeff 478 harmonic 33.0 107.8 
angle_coeff 479 harmonic 33.0 107.8 
angle_coeff 480 harmonic 33.0 107.8 
angle_coeff 481 harmonic 33.0 107.8 
angle_coeff 482 harmonic 33.0 107.8 
angle_coeff 483 harmonic 33.0 107.8 
angle_coeff 484 harmonic 33.0 107.8 
angle_coeff 485 harmonic 33.0 107.8 
angle_coeff 486 harmonic 33.0 107.8 
angle_coeff 487 harmonic 33.0 107.8 
angle_coeff 488 harmonic 33.0 107.8 
angle_coeff 489 harmonic 33.0 107.8 
angle_coeff 490 harmonic 33.0 107.8 
angle_coeff 491 harmonic 33.0 107.8 
angle_coeff 492 harmonic 33.0 107.8 
angle_coeff 493 harmonic 33.0 107.8 
angle_coeff 494 harmonic 35.0 109.5 
angle_coeff 495 harmonic 35.0 109.5 
angle_coeff 496 harmonic 35.0 109.5 
angle_coeff 497 harmonic 35.0 109.5 
angle_coeff 498 harmonic 35.0 109.5 
angle_coeff 499 harmonic 35.0 109.5 
angle_coeff 500 harmonic 35.0 109.5 
angle_coeff 501 harmonic 35.0 109.5 
angle_coeff 502 harmonic 35.0 109.5 
angle_coeff 503 harmonic 35.0 109.5 
angle_coeff 504 harmonic 35.0 109.5 
angle_coeff 505 harmonic 35.0 109.5 
angle_coeff 506 harmonic 35.0 109.5 
angle_coeff 507 harmonic 35.0 109.5 
angle_coeff 508 harmonic 35.0 109.5 
angle_coeff 509 harmonic 35.0 109.5 
angle_coeff 510 harmonic 35.0 109.5 
angle_coeff 511 harmonic 35.0 109.5 
angle_coeff 512 harmonic 35.0 109.5 
angle_coeff 513 harmonic 35.0 109.5 
angle_coeff 514 harmonic 35.0 109.5 
angle_coeff 515 harmonic 35.0 109.5 
angle_coeff 516 harmonic 35.0 109.5 
angle_coeff 517 harmonic 35.0 109.5 
angle_coeff 518 harmonic 35.0 109.5 
angle_coeff 519 harmonic 35.0 109.5 
angle_coeff 520 harmonic 35.0 109.5 
angle_coeff 521 harmonic 35.0 109.5 
angle_coeff 522 harmonic 35.0 109.5 
angle_coeff 523 harmonic 35.0 109.5 
angle_coeff 524 harmonic 35.0 109.5 
angle_coeff 525 harmonic 35.0 109.5 
angle_coeff 526 harmonic 35.0 109.5 
angle_coeff 527 harmonic 35.0 109.5 
angle_coeff 528 harmonic 35.0 109.5 
angle_coeff 529 harmonic 35.0 109.5 
angle_coeff 530 harmonic 35.0 109.5 
angle_coeff 531 harmonic 35.0 109.5 
angle_coeff 532 harmonic 35.0 109.5 
angle_coeff 533 harmonic 35.0 109.5 
angle_coeff 534 harmonic 35.0 109.5 
angle_coeff 535 harmonic 35.0 109.5 
angle_coeff 536 harmonic 35.0 109.5 
angle_coeff 537 harmonic 35.0 109.5 
angle_coeff 538 harmonic 35.0 109.5 
angle_coeff 539 harmonic 35.0 109.5 
angle_coeff 540 harmonic 35.0 109.5 
angle_coeff 541 harmonic 35.0 109.5 
angle_coeff 542 harmonic 35.0 109.5 
angle_coeff 543 harmonic 35.0 109.5 
angle_coeff 544 harmonic 35.0 109.5 
angle_coeff 545 harmonic 35.0 109.5 
angle_coeff 546 harmonic 35.0 109.5 
angle_coeff 547 harmonic 35.0 109.5 
angle_coeff 548 harmonic 37.5 110.7 
angle_coeff 549 harmonic 37.5 110.7 
angle_coeff 550 harmonic 37.5 110.7 
angle_coeff 551 harmonic 37.5 110.7 
angle_coeff 552 harmonic 37.5 110.7 
angle_coeff 553 harmonic 37.5 110.7 
angle_coeff 554 harmonic 37.5 110.7 
angle_coeff 555 harmonic 37.5 110.7 
angle_coeff 556 harmonic 37.5 110.7 
angle_coeff 557 harmonic 37.5 110.7 
angle_coeff 558 harmonic 37.5 110.7 
angle_coeff 559 harmonic 37.5 110.7 
angle_coeff 560 harmonic 37.5 110.7 
angle_coeff 561 harmonic 37.5 110.7 
angle_coeff 562 harmonic 37.5 110.7 
angle_coeff 563 harmonic 37.5 110.7 
angle_coeff 564 harmonic 37.5 110.7 
angle_coeff 565 harmonic 37.5 110.7 
angle_coeff 566 harmonic 37.5 110.7 
angle_coeff 567 harmonic 37.5 110.7 
angle_coeff 568 harmonic 37.5 110.7 
angle_coeff 569 harmonic 37.5 110.7 
angle_coeff 570 harmonic 37.5 110.7 
angle_coeff 571 harmonic 37.5 110.7 
angle_coeff 572 harmonic 37.5 110.7 
angle_coeff 573 harmonic 37.5 110.7 
angle_coeff 574 harmonic 37.5 110.7 
angle_coeff 575 harmonic 37.5 110.7 
angle_coeff 576 harmonic 37.5 110.7 
angle_coeff 577 harmonic 37.5 110.7 
angle_coeff 578 harmonic 37.5 110.7 
angle_coeff 579 harmonic 37.5 110.7 
angle_coeff 580 harmonic 37.5 110.7 
angle_coeff 581 harmonic 37.5 110.7 
angle_coeff 582 harmonic 37.5 110.7 
angle_coeff 583 harmonic 37.5 110.7 
angle_coeff 584 harmonic 37.5 110.7 
angle_coeff 585 harmonic 37.5 110.7 
angle_coeff 586 harmonic 37.5 110.7 
angle_coeff 587 harmonic 37.5 110.7 
angle_coeff 588 harmonic 37.5 110.7 
angle_coeff 589 harmonic 37.5 110.7 
angle_coeff 590 harmonic 37.5 110.7 
angle_coeff 591 harmonic 37.5 110.7 
angle_coeff 592 harmonic 37.5 110.7 
angle_coeff 593 harmonic 37.5 110.7 
angle_coeff 594 harmonic 37.5 110.7 
angle_coeff 595 harmonic 37.5 110.7 
angle_coeff 596 harmonic 37.5 110.7 
angle_coeff 597 harmonic 37.5 110.7 
angle_coeff 598 harmonic 37.5 110.7 
angle_coeff 599 harmonic 37.5 110.7 
angle_coeff 600 harmonic 37.5 110.7 
angle_coeff 601 harmonic 37.5 110.7 
angle_coeff 602 harmonic 37.5 110.7 
angle_coeff 603 harmonic 37.5 110.7 
angle_coeff 604 harmonic 37.5 110.7 
angle_coeff 605 harmonic 37.5 110.7 
angle_coeff 606 harmonic 37.5 110.7 
angle_coeff 607 harmonic 37.5 110.7 
angle_coeff 608 harmonic 37.5 110.7 
angle_coeff 609 harmonic 37.5 110.7 
angle_coeff 610 harmonic 37.5 110.7 
angle_coeff 611 harmonic 37.5 110.7 
angle_coeff 612 harmonic 37.5 110.7 
angle_coeff 613 harmonic 37.5 110.7 
angle_coeff 614 harmonic 37.5 110.7 
angle_coeff 615 harmonic 37.5 110.7 
angle_coeff 616 harmonic 37.5 110.7 
angle_coeff 617 harmonic 37.5 110.7 
angle_coeff 618 harmonic 37.5 110.7 
angle_coeff 619 harmonic 37.5 110.7 
angle_coeff 620 harmonic 37.5 110.7 
angle_coeff 621 harmonic 37.5 110.7 
angle_coeff 622 harmonic 37.5 110.7 
angle_coeff 623 harmonic 37.5 110.7 
angle_coeff 624 harmonic 37.5 110.7 
angle_coeff 625 harmonic 37.5 110.7 
angle_coeff 626 harmonic 37.5 110.7 
angle_coeff 627 harmonic 37.5 110.7 
angle_coeff 628 harmonic 37.5 110.7 
angle_coeff 629 harmonic 37.5 110.7 
angle_coeff 630 harmonic 37.5 110.7 
angle_coeff 631 harmonic 37.5 110.7 
angle_coeff 632 harmonic 37.5 110.7 
angle_coeff 633 harmonic 37.5 110.7 
angle_coeff 634 harmonic 37.5 110.7 
angle_coeff 635 harmonic 37.5 110.7 
angle_coeff 636 harmonic 37.5 110.7 
angle_coeff 637 harmonic 37.5 110.7 
angle_coeff 638 harmonic 37.5 110.7 
angle_coeff 639 harmonic 37.5 110.7 
angle_coeff 640 harmonic 37.5 110.7 
angle_coeff 641 harmonic 37.5 110.7 
angle_coeff 642 harmonic 37.5 110.7 
angle_coeff 643 harmonic 37.5 110.7 
angle_coeff 644 harmonic 37.5 110.7 
angle_coeff 645 harmonic 37.5 110.7 
angle_coeff 646 harmonic 37.5 110.7 
angle_coeff 647 harmonic 37.5 110.7 
angle_coeff 648 harmonic 37.5 110.7 
angle_coeff 649 harmonic 37.5 110.7 
angle_coeff 650 harmonic 37.5 110.7 
angle_coeff 651 harmonic 37.5 110.7 
angle_coeff 652 harmonic 37.5 110.7 
angle_coeff 653 harmonic 37.5 110.7 
angle_coeff 654 harmonic 37.5 110.7 
angle_coeff 655 harmonic 37.5 110.7 
angle_coeff 656 harmonic 60.0 109.5 
angle_coeff 657 harmonic 60.0 109.5 
angle_coeff 658 harmonic 60.0 109.5 
angle_coeff 659 harmonic 60.0 109.5 
angle_coeff 660 harmonic 60.0 109.5 
angle_coeff 661 harmonic 60.0 109.5 
angle_coeff 662 harmonic 60.0 109.5 
angle_coeff 663 harmonic 60.0 109.5 
angle_coeff 664 harmonic 60.0 109.5 
angle_coeff 665 harmonic 60.0 109.5 
angle_coeff 666 harmonic 60.0 109.5 
angle_coeff 667 harmonic 60.0 109.5 
angle_coeff 668 harmonic 60.0 109.5 
angle_coeff 669 harmonic 60.0 109.5 
angle_coeff 670 harmonic 60.0 109.5 
angle_coeff 671 harmonic 60.0 109.5 
angle_coeff 672 harmonic 60.0 109.5 
angle_coeff 673 harmonic 60.0 109.5 
angle_coeff 674 harmonic 60.0 109.5 
angle_coeff 675 harmonic 60.0 109.5 
angle_coeff 676 harmonic 60.0 109.5 
angle_coeff 677 harmonic 60.0 109.5 
angle_coeff 678 harmonic 60.0 109.5 
angle_coeff 679 harmonic 60.0 109.5 
angle_coeff 680 harmonic 60.0 109.5 
angle_coeff 681 harmonic 60.0 109.5 
angle_coeff 682 harmonic 60.0 109.5 
angle_coeff 683 harmonic 60.0 109.5 
angle_coeff 684 harmonic 60.0 109.5 
angle_coeff 685 harmonic 60.0 109.5 
angle_coeff 686 harmonic 60.0 109.5 
angle_coeff 687 harmonic 60.0 109.5 
angle_coeff 688 harmonic 60.0 109.5 
angle_coeff 689 harmonic 60.0 109.5 
angle_coeff 690 harmonic 60.0 109.5 
angle_coeff 691 harmonic 60.0 109.5 
angle_coeff 692 harmonic 83.0 116.9 
angle_coeff 693 harmonic 83.0 116.9 
angle_coeff 694 harmonic 83.0 116.9 
angle_coeff 695 harmonic 83.0 116.9 
angle_coeff 696 harmonic 83.0 116.9 
angle_coeff 697 harmonic 83.0 116.9 
angle_coeff 698 harmonic 51.8 107.2 
angle_coeff 699 harmonic 51.8 107.2 
angle_coeff 700 harmonic 51.8 107.2 
angle_coeff 701 harmonic 51.8 107.2 
angle_coeff 702 harmonic 51.8 107.2 
angle_coeff 703 harmonic 51.8 107.2 
angle_coeff 704 harmonic 51.8 107.2 
angle_coeff 705 harmonic 51.8 107.2 
angle_coeff 706 harmonic 51.8 107.2 
angle_coeff 707 harmonic 51.8 107.2 
angle_coeff 708 harmonic 51.8 107.2 
angle_coeff 709 harmonic 51.8 107.2 
angle_coeff 710 harmonic 51.8 107.2 
angle_coeff 711 harmonic 51.8 107.2 
angle_coeff 712 harmonic 51.8 107.2 
angle_coeff 713 harmonic 51.8 107.2 
angle_coeff 714 harmonic 51.8 107.2 
angle_coeff 715 harmonic 51.8 107.2 
angle_coeff 716 harmonic 51.8 107.2 
angle_coeff 717 harmonic 51.8 107.2 
angle_coeff 718 harmonic 51.8 107.2 