# LAMMPS Script for Resize

if "${is_GPU} == 1" then "package gpu force/neigh ${GPU} ${GPU} -1.0"

# ----------------------------------
## READ_RESTART
# ----------------------------------
read_restart ./equilibration/restart/restart_${usic}_${trial}_${namestring}_T${Temp}.equ.restart

reset_timestep 0

# ----------------------------------
## PAIR
# ----------------------------------
neigh_modify delay 0 every 1 check yes

# ----------------------------------
## Saving Frequency (50 frames)
# ----------------------------------
variable ts_save equal floor(${steps_res}*0.02)

# ----------------------------------
## DUMP
# ----------------------------------
dump 1 all xyz ${ts_save} ./resize/trajectory/trajectory_${usic}_${trial}_${namestring}_T${Temp}.res.xyz
dump_modify 1 append yes

# ----------------------------------
## FIX
# ----------------------------------
fix 1 all deform 100 x final -${halfX} ${halfX} y final -${halfY} ${halfY} z final -${halfZ} ${halfZ} remap x units box 

# ----------------------------------
## THERMO_STYLE
# ----------------------------------
thermo_style custom step temp press pe ke etotal ebond eangle epair lx ly lz vol density dt time cpu tpcpu spcpu cpuremain

# ----------------------------------
## RUN_STYLE
# ----------------------------------
run_style verlet

# ----------------------------------
## RESIZE RUN
# ----------------------------------
timestep ${ts}
thermo ${ts_save}
run ${steps_res}
# ----------------------------------

unfix 1

variable T equal ${Temp}/1000000.0

fix 1 all nvt temp ${T} ${T} 2

# ----------------------------------
## POST-RESIZE RUN
# ----------------------------------
timestep ${ts}
thermo ${ts_save}
run ${steps_res}
# ----------------------------------

# ----------------------------------
## WRITE_RESTART
# ----------------------------------
write_restart ./resize/restart/restart_${usic}_${trial}_${namestring}_T${Temp}.res.restart
