# LAMMPS Script for Generation

if "${is_GPU} == 1" then "package gpu force/neigh ${GPU} ${GPU} -1.0"

units lj
dimension 2
atom_style atomic

# ----------------------------------
## READ_DATA
# ----------------------------------
read_data ./lammps_inputs/start_data/input_${trial}.dat

# ----------------------------------
## PAIR INTERACTION
# ----------------------------------
pair_style lj/cut 2.5
pair_coeff 1 1 1.00 1.00 
pair_coeff 1 2 1.50 0.80 
pair_coeff 2 2 0.50 0.88 

# ----------------------------------
## PAIR
# ----------------------------------
pair_modify shift yes
neigh_modify delay 0 every 1 check yes

# ----------------------------------
## Group IDs (Note the Atom types)
# ----------------------------------
group type1 type 1
group type2 type 2
# ----------------------------------
## DUMP
# ----------------------------------
dump 1 all xyz 1000 ./generation/trajectory/trajectory_${usic}_${trial}_${namestring}_T${Temp}.gen.xyz
dump_modify 1 append yes

# ----------------------------------
## Energy minimization
# ----------------------------------
minimize 1.0e-5 1.0e-7 1000 10000

# ----------------------------------
## FIX
# ----------------------------------
fix 1 all momentum 200 linear 1 1 1 angular

# ----------------------------------
## START WITH HIGH TEMPERATURE
# ----------------------------------
variable T equal ${Temp}/1000000.0

fix 2 all enforce2d
fix 3 all nvt temp ${T} ${T} 2


# ----------------------------------
## THERMO_STYLE
# ----------------------------------
thermo_style custom step temp press pe ke etotal ebond eangle epair lx ly lz vol density dt time cpu tpcpu spcpu cpuremain

# ----------------------------------
## RUN_STYLE
# ----------------------------------
run_style verlet

# ----------------------------------
## VELOCITY
# ----------------------------------
velocity all create ${T} ${vseed} mom yes rot yes dist gaussian

# ----------------------------------
## PRE-RUN
# ----------------------------------
timestep 0.0005
thermo 1000
run 100000

timestep 0.001
thermo 1000
run 100000

unfix 3 
fix 3 all npt temp ${T} ${T} 2 iso 1.0 1.0 2

timestep ${ts}
thermo 10000
run 500000

fix 3 all npt temp ${T} ${T} 2 iso 1.0 0 2

timestep ${ts}
thermo 10000
run 1000000

fix 3 all npt temp ${T} ${T} 2 iso 0 0 2

timestep ${ts}
thermo 10000
run 1000000

reset_timestep 0

# ----------------------------------
## Saving Frequency
# ----------------------------------
variable ts_save equal floor(${steps_gen}*0.02)
dump_modify 1 every ${ts_save}

# ----------------------------------
## GENERATION RUN
# ----------------------------------
timestep ${ts}
thermo ${ts_save}
run ${steps_gen}
# ----------------------------------

# ----------------------------------
## GENERATION RESTART
# ----------------------------------
write_restart ./generation/restart/restart_${usic}_${trial}_${namestring}_T${Temp}.gen.restart

