# LAMMPS Script for Quench

if "${is_GPU} == 1" then "package gpu force/neigh ${GPU} ${GPU} -1.0"

# ----------------------------------
## READ_RESTART
# ----------------------------------
read_restart ${readRestartPath}

reset_timestep 0

# ----------------------------------
## PAIR
# ----------------------------------
neigh_modify delay 0 every 1 check yes

# ----------------------------------
## FIX
# ----------------------------------
fix 1 all momentum 200 linear 1 1 1 angular

# ----------------------------------
## THERMO_STYLE
# ----------------------------------
thermo_style custom step temp press pe ke etotal ebond eangle epair lx ly lz vol density dt time cpu tpcpu spcpu

# ----------------------------------
## RUN_STYLE
# ----------------------------------
run_style verlet

variable quench_steps equal floor(${steps_qch}/${n_intervals})
variable ts_save equal floor(${quench_steps}*0.2)

# ----------------------------------
## DUMP
# ----------------------------------
dump 1 all xyz ${ts_save} ./quench/trajectory/trajectory_${usic}_${trial}_${namestring}_Regime${Regime}.qch.xyz
dump_modify 1 append yes

# ----------------------------------
## save highest T of quench
# ----------------------------------
write_restart ./quench/restart/restart_${usic}_${trial}_${namestring}_T${TempA}.qch.restart

label loopOverT

variable TA equal ${TempA}/1000000.0
variable TB equal ${TempB}/1000000.0

fix 2 all npt temp ${TA} ${TB} 2 iso 0 0 2
fix 3 all enforce2d

# ----------------------------------
## QUENCH RUN
# ----------------------------------
timestep ${ts}
thermo ${ts_save}
run ${quench_steps}
# ----------------------------------

# ----------------------------------
## QUENCH RESTARTS
# ----------------------------------
write_restart ./quench/restart/restart_${usic}_${trial}_${namestring}_T${TempB}.qch.restart

next TempA
next TempB

jump SELF loopOverT
