
if "${is_GPU} == 1" then "package gpu force/neigh ${GPU} ${GPU} 1.0"

read_restart ${read_res}

# ----------------- Init Section -----------------
#units real
#atom_style full

pair_style eam/alloy
pair_coeff	* * ./lammps_inputs/generation/gen_CuAg.eam Cu Ag

pair_modify shift yes
neigh_modify delay 0 every 1 check yes
    
if "${run_phase} == 1" then "reset_timestep 0"

# ----------------------------------
## Saving Frequency (50 frames)
# ----------------------------------
variable ts_save equal floor(${steps_equ}*0.02)

# ----------------------------------
## DUMP
# ----------------------------------
dump 1 all xyz ${ts_save} ./equilibration/trajectory/trajectory_${usic}_${trial}_${namestring}_T${Temp}.equ.xyz
dump_modify 1 append yes

# ----------------------------------
## CHECKPOINT
# ----------------------------------
if "${set_CheckPoint} == 1" then "restart ${restartf} ./equilibration/restart/restart_${usic}_${trial}_${namestring}_T${Temp}.equ.restart"

# ----------------------------------
## FIX
# ----------------------------------
fix 1 all momentum 1000 linear 1 1 1 angular

variable T equal ${Temp}/1000.0

fix 2 all enforce2d
fix 3 all npt temp ${T} ${T} 0.1 iso 1.0 1.0 1.0

# ----------------------------------
## THERMO_STYLE
# ----------------------------------
thermo_style custom step temp press pe ke etotal ebond eangle epair lx ly lz vol density dt time cpu tpcpu spcpu cpuremain

# ----------------------------------
## RUN_STYLE
# ----------------------------------
run_style verlet

# ----------------------------------
## EQUILIBRATION RUN
# ----------------------------------
timestep ${ts}
thermo ${ts_save}
run ${steps_equ}
# ----------------------------------

# ----------------------------------
## WRITE_RESTART
# ----------------------------------
write_restart ${write_res}

