# LAMMPS Script for Generation

if "${is_GPU} == 1" then "package gpu force/neigh ${GPU} ${GPU} -1.0"

units lj
atom_style bond

# ----------------------------------
## READ_DATA
# ----------------------------------
read_data ./lammps_inputs/start_data/input_${trial}.data

# ----------------------------------
## BOND
# ----------------------------------
bond_style fene
bond_coeff 1 30.00 1.50 1.00 1.00 

# ----------------------------------
## PAIR INTERACTION
# ----------------------------------
pair_style lj/cut 2.5
pair_coeff 1 1 1.000000 1.000000 

# ----------------------------------
## PAIR
# ----------------------------------
special_bonds lj 0.0 1.0 1.0
pair_modify shift yes
neigh_modify delay 1 every 1 check yes

# ----------------------------------
## Group IDs (Note the Atom types)
# ----------------------------------
group polymer type 1
group backbone type 1

# ----------------------------------
## DUMP
# ----------------------------------
dump 1 all xyz 1000 ./generation/trajectory/trajectory_${usic}_${trial}_${namestring}_T${Temp}.gen.xyz
dump_modify 1 append yes

# ----------------------------------
## FIX
# ----------------------------------
fix 1 all momentum 200 linear 1 1 1 angular

# ----------------------------------
## START WITH HIGH TEMPERATURE
# ----------------------------------
variable T equal ${Temp}/1000000.0

fix 2 all nvt temp ${T} ${T} 2

# ----------------------------------
## THERMO_STYLE
# ----------------------------------
thermo_style custom step temp press pe ke etotal ebond eangle epair lx ly lz vol density dt time cpu tpcpu spcpu cpuremain

# ----------------------------------
## RUN_STYLE
# ----------------------------------
run_style verlet

# ----------------------------------
## VELOCITY
# ----------------------------------
velocity all create ${T} ${vseed} mom yes rot yes dist gaussian

# ----------------------------------
## PRE-RUN
# ----------------------------------
timestep 0.0005
thermo 1000
run 10000

timestep 0.001
thermo 1000
run 10000

unfix 2 
fix 2 all npt temp ${T} ${T} 2 iso 1.0 1.0 2

timestep ${ts}
thermo 1000
run 50000

fix 2 all npt temp ${T} ${T} 2 iso 1.0 0 2

timestep ${ts}
thermo 1000
run 50000

fix 2 all npt temp ${T} ${T} 2 iso 0 0 2

timestep ${ts}
thermo 1000
run 50000

# ----------------------------------
## Saving Frequency
# ----------------------------------
variable ts_save equal floor(${steps_gen}*0.02)
dump_modify 1 every ${ts_save}

reset_timestep 0

# ----------------------------------
## GENERATION RUN
# ----------------------------------
timestep ${ts}
thermo ${ts_save}
run ${steps_gen}
# ----------------------------------

# ----------------------------------
## GENERATION RESTART
# ----------------------------------
write_restart ./generation/restart/restart_${usic}_${trial}_${namestring}_T${Temp}.gen.restart

